MST06
Position Depot: Random
Horizon for Depot: Small
Position of customers: Mixt
Distribution of the demand: Medium
Width of time windows: Tight
Distribution of the service: Small

VEHICLE 
NUMBER 	 CAPACITY 
 11 	 	 166 
 
CUSTOMER
CUST NO. 	 XCOORD.  	 YCOORD. 	 DEMAND 	 READY TIME 	 DUE DATE 	 SERVICE TIME 
 0 	 	 918 	 	 842 	 	 0 	 	 0 	 	 2197 	 	 0 
  1 	 	 400 	 	 472 	 	 8 	 	 638 	 	 700 	 	 73 
  2 	 	 911 	 	 248 	 	 9 	 	 1933 	 	 1997 	 	 60 
  3 	 	 931 	 	 159 	 	 3 	 	 2021 	 	 2084 	 	 96 
  4 	 	 654 	 	 904 	 	 7 	 	 505 	 	 620 	 	 100 
  5 	 	 823 	 	 807 	 	 1 	 	 1487 	 	 1667 	 	 93 
  6 	 	 979 	 	 310 	 	 8 	 	 1678 	 	 1830 	 	 89 
  7 	 	 564 	 	 652 	 	 50 	 	 1724 	 	 1777 	 	 94 
  8 	 	 929 	 	 156 	 	 69 	 	 2114 	 	 2197 	 	 72 
  9 	 	 920 	 	 136 	 	 9 	 	 900 	 	 1047 	 	 82 
  10 	 	 361 	 	 497 	 	 3 	 	 663 	 	 720 	 	 78 
  11 	 	 853 	 	 156 	 	 6 	 	 572 	 	 757 	 	 52 
  12 	 	 764 	 	 799 	 	 8 	 	 822 	 	 979 	 	 82 
  13 	 	 776 	 	 767 	 	 63 	 	 1193 	 	 1373 	 	 72 
  14 	 	 787 	 	 787 	 	 6 	 	 495 	 	 549 	 	 71 
  15 	 	 362 	 	 477 	 	 10 	 	 615 	 	 731 	 	 76 
  16 	 	 885 	 	 140 	 	 4 	 	 1631 	 	 1683 	 	 80 
  17 	 	 985 	 	 202 	 	 4 	 	 1311 	 	 1365 	 	 89 
  18 	 	 949 	 	 140 	 	 3 	 	 1566 	 	 1742 	 	 94 
  19 	 	 278 	 	 457 	 	 8 	 	 2049 	 	 2189 	 	 80 
  20 	 	 955 	 	 208 	 	 4 	 	 1103 	 	 1216 	 	 69 
  21 	 	 858 	 	 248 	 	 3 	 	 1087 	 	 1140 	 	 92 
  22 	 	 945 	 	 910 	 	 10 	 	 1764 	 	 1884 	 	 83 
  23 	 	 989 	 	 260 	 	 9 	 	 505 	 	 644 	 	 78 
  24 	 	 881 	 	 417 	 	 6 	 	 1823 	 	 2012 	 	 75 
  25 	 	 833 	 	 745 	 	 51 	 	 1754 	 	 1814 	 	 77 
  26 	 	 352 	 	 537 	 	 5 	 	 577 	 	 707 	 	 73 
  27 	 	 896 	 	 312 	 	 7 	 	 405 	 	 583 	 	 75 
  28 	 	 853 	 	 243 	 	 9 	 	 535 	 	 662 	 	 79 
  29 	 	 923 	 	 239 	 	 5 	 	 1461 	 	 1619 	 	 60 
  30 	 	 704 	 	 901 	 	 2 	 	 1608 	 	 1665 	 	 85 
  31 	 	 837 	 	 823 	 	 3 	 	 1255 	 	 1399 	 	 90 
  32 	 	 875 	 	 5 	 	 1 	 	 1214 	 	 1306 	 	 64 
  33 	 	 647 	 	 919 	 	 8 	 	 2017 	 	 2197 	 	 84 
  34 	 	 357 	 	 485 	 	 4 	 	 618 	 	 731 	 	 66 
  35 	 	 877 	 	 145 	 	 10 	 	 594 	 	 768 	 	 98 
  36 	 	 925 	 	 264 	 	 91 	 	 1089 	 	 1284 	 	 95 
  37 	 	 867 	 	 160 	 	 4 	 	 579 	 	 752 	 	 93 
  38 	 	 696 	 	 967 	 	 1 	 	 850 	 	 1022 	 	 87 
  39 	 	 775 	 	 198 	 	 94 	 	 572 	 	 725 	 	 80 
  40 	 	 578 	 	 858 	 	 2 	 	 959 	 	 1130 	 	 85 
  41 	 	 457 	 	 380 	 	 6 	 	 1357 	 	 1507 	 	 98 
  42 	 	 651 	 	 895 	 	 7 	 	 1761 	 	 1855 	 	 82 
  43 	 	 922 	 	 170 	 	 69 	 	 573 	 	 739 	 	 95 
  44 	 	 663 	 	 899 	 	 10 	 	 703 	 	 779 	 	 79 
  45 	 	 941 	 	 127 	 	 3 	 	 1699 	 	 1801 	 	 75 
  46 	 	 843 	 	 822 	 	 5 	 	 1610 	 	 1751 	 	 76 
  47 	 	 458 	 	 427 	 	 1 	 	 627 	 	 681 	 	 75 
  48 	 	 987 	 	 124 	 	 3 	 	 735 	 	 800 	 	 51 
  49 	 	 890 	 	 839 	 	 51 	 	 1956 	 	 2156 	 	 70 
  50 	 	 876 	 	 801 	 	 7 	 	 830 	 	 918 	 	 81 
  51 	 	 615 	 	 96 	 	 10 	 	 701 	 	 885 	 	 82 
  52 	 	 374 	 	 822 	 	 59 	 	 469 	 	 598 	 	 89 
  53 	 	 689 	 	 340 	 	 4 	 	 1320 	 	 1410 	 	 73 
  54 	 	 438 	 	 553 	 	 85 	 	 1157 	 	 1230 	 	 52 
  55 	 	 641 	 	 121 	 	 6 	 	 795 	 	 849 	 	 51 
  56 	 	 906 	 	 968 	 	 7 	 	 1616 	 	 1798 	 	 86 
  57 	 	 35 	 	 480 	 	 3 	 	 1944 	 	 2093 	 	 65 
  58 	 	 922 	 	 522 	 	 3 	 	 233 	 	 352 	 	 52 
  59 	 	 997 	 	 462 	 	 9 	 	 844 	 	 1040 	 	 60 
  60 	 	 67 	 	 11 	 	 9 	 	 1708 	 	 1862 	 	 56 
  61 	 	 981 	 	 287 	 	 8 	 	 2059 	 	 2154 	 	 83 
  62 	 	 854 	 	 913 	 	 2 	 	 153 	 	 323 	 	 61 
  63 	 	 368 	 	 757 	 	 10 	 	 510 	 	 612 	 	 88 
  64 	 	 11 	 	 810 	 	 66 	 	 1218 	 	 1339 	 	 69 
  65 	 	 850 	 	 63 	 	 6 	 	 736 	 	 860 	 	 58 
  66 	 	 799 	 	 560 	 	 7 	 	 1660 	 	 1821 	 	 73 
  67 	 	 442 	 	 949 	 	 1 	 	 403 	 	 536 	 	 95 
  68 	 	 983 	 	 233 	 	 94 	 	 1874 	 	 2021 	 	 67 
  69 	 	 357 	 	 643 	 	 10 	 	 1138 	 	 1261 	 	 100 
  70 	 	 180 	 	 112 	 	 57 	 	 1012 	 	 1141 	 	 80 
  71 	 	 601 	 	 602 	 	 57 	 	 763 	 	 828 	 	 58 
  72 	 	 78 	 	 772 	 	 79 	 	 1038 	 	 1116 	 	 97 
  73 	 	 23 	 	 276 	 	 10 	 	 1070 	 	 1164 	 	 100 
  74 	 	 789 	 	 46 	 	 80 	 	 763 	 	 887 	 	 85 
  75 	 	 265 	 	 758 	 	 7 	 	 1092 	 	 1229 	 	 71 
  76 	 	 382 	 	 693 	 	 9 	 	 642 	 	 694 	 	 85 
  77 	 	 749 	 	 422 	 	 4 	 	 373 	 	 497 	 	 67 
  78 	 	 950 	 	 539 	 	 2 	 	 1784 	 	 1838 	 	 66 
  79 	 	 549 	 	 536 	 	 2 	 	 477 	 	 527 	 	 99 
  80 	 	 867 	 	 190 	 	 8 	 	 560 	 	 719 	 	 75 
  81 	 	 764 	 	 804 	 	 5 	 	 373 	 	 496 	 	 52 
  82 	 	 197 	 	 207 	 	 9 	 	 997 	 	 1056 	 	 83 
  83 	 	 147 	 	 14 	 	 5 	 	 1685 	 	 1786 	 	 70 
  84 	 	 406 	 	 676 	 	 1 	 	 743 	 	 870 	 	 55 
  85 	 	 74 	 	 768 	 	 8 	 	 871 	 	 931 	 	 71 
  86 	 	 175 	 	 277 	 	 2 	 	 916 	 	 1026 	 	 87 
  87 	 	 803 	 	 279 	 	 9 	 	 1120 	 	 1301 	 	 98 
  88 	 	 530 	 	 626 	 	 53 	 	 1877 	 	 2019 	 	 50 
  89 	 	 945 	 	 334 	 	 5 	 	 908 	 	 973 	 	 98 
  90 	 	 695 	 	 972 	 	 7 	 	 1769 	 	 1943 	 	 89 
  91 	 	 727 	 	 993 	 	 65 	 	 1727 	 	 1895 	 	 88 
  92 	 	 165 	 	 851 	 	 4 	 	 756 	 	 828 	 	 95 
  93 	 	 322 	 	 897 	 	 4 	 	 1874 	 	 1963 	 	 54 
  94 	 	 731 	 	 772 	 	 76 	 	 534 	 	 607 	 	 68 
  95 	 	 917 	 	 802 	 	 6 	 	 1253 	 	 1393 	 	 69 
  96 	 	 59 	 	 855 	 	 68 	 	 804 	 	 945 	 	 94 
  97 	 	 703 	 	 1000 	 	 5 	 	 705 	 	 844 	 	 70 
  98 	 	 721 	 	 59 	 	 7 	 	 689 	 	 888 	 	 91 
  99 	 	 846 	 	 709 	 	 7 	 	 1441 	 	 1552 	 	 57 
  100 	 	 725 	 	 955 	 	 4 	 	 1146 	 	 1286 	 	 87 
 